% File represents an instance of a Composite Structure problem to be solved by a CP framework
% Created on 2025-03-26 10:42:17.144
T = 50;
n = 36;
m = 60;
edges = [(1, 2),
(7, 8),
(13, 14),
(19, 20),
(26, 25),
(32, 31),
(3, 2),
(9, 8),
(15, 14),
(21, 20),
(26, 27),
(32, 33),
(3, 4),
(10, 9),
(16, 15),
(22, 21),
(28, 27),
(34, 33),
(4, 5),
(10, 11),
(16, 17),
(22, 23),
(29, 28),
(35, 34),
(6, 5),
(11, 12),
(17, 18),
(23, 24),
(29, 30),
(35, 36),
(1, 7),
(7, 13),
(13, 19),
(19, 25),
(25, 31),
(2, 8),
(8, 14),
(14, 20),
(26, 20),
(26, 32),
(3, 9),
(9, 15),
(15, 21),
(21, 27),
(27, 33),
(10, 4),
(10, 16),
(16, 22),
(22, 28),
(28, 34),
(11, 5),
(11, 17),
(17, 23),
(29, 23),
(29, 35),
(6, 12),
(12, 18),
(18, 24),
(24, 30),
(30, 36)];
counts = [|6, 20, 6, 14,
|6, 20, 6, 12,
|8, 20, 8, 14,
|8, 20, 8, 10,
|8, 20, 8, 8,
|8, 22, 8, 8,
|6, 18, 6, 14,
|6, 14, 6, 12,
|8, 14, 8, 14,
|8, 20, 8, 14,
|8, 20, 8, 12,
|8, 20, 8, 8,
|6, 12, 6, 14,
|6, 12, 6, 8,
|8, 14, 8, 8,
|8, 20, 8, 8,
|8, 20, 8, 6,
|8, 20, 8, 4,
|6, 12, 6, 8,
|6, 10, 6, 4,
|8, 12, 8, 4,
|8, 14, 8, 8,
|8, 14, 8, 6,
|8, 14, 8, 4,
|6, 10, 6, 4,
|8, 10, 8, 4,
|6, 10, 6, 4,
|8, 10, 8, 6,
|8, 16, 8, 6,
|8, 14, 8, 2,
|6, 8, 6, 4,
|8, 8, 8, 4,
|6, 8, 6, 4,
|6, 10, 6, 4,
|6, 16, 6, 4,
|6, 14, 6, 2|];
